language Essence 1.3

letting costTC be
        function((1, 1) --> 1, (1, 2) --> 1, (1, 3) --> 1, (1, 4) --> 1, (1, 5) --> 1, (1, 6) --> 1, (1, 7) --> 1,
                 (1, 8) --> 1, (1, 9) --> 1, (1, 10) --> 1, (2, 1) --> 1, (2, 2) --> 1, (2, 3) --> 1, (2, 4) --> 1,
                 (2, 5) --> 1, (2, 6) --> 1, (2, 7) --> 1, (2, 8) --> 1, (2, 9) --> 1, (2, 10) --> 1, (3, 1) --> 1,
                 (3, 2) --> 1, (3, 3) --> 1, (3, 4) --> 1, (3, 5) --> 1, (3, 6) --> 1, (3, 7) --> 1, (3, 8) --> 1,
                 (3, 9) --> 1, (3, 10) --> 1, (4, 1) --> 1, (4, 2) --> 1, (4, 3) --> 1, (4, 4) --> 1, (4, 5) --> 1,
                 (4, 6) --> 1, (4, 7) --> 1, (4, 8) --> 1, (4, 9) --> 1, (4, 10) --> 1, (5, 1) --> 1, (5, 2) --> 1,
                 (5, 3) --> 1, (5, 4) --> 1, (5, 5) --> 1, (5, 6) --> 1, (5, 7) --> 1, (5, 8) --> 1, (5, 9) --> 1,
                 (5, 10) --> 1, (6, 1) --> 1, (6, 2) --> 1, (6, 3) --> 1, (6, 4) --> 1, (6, 5) --> 1, (6, 6) --> 1,
                 (6, 7) --> 1, (6, 8) --> 1, (6, 9) --> 1, (6, 10) --> 1, (7, 1) --> 1, (7, 2) --> 1, (7, 3) --> 1,
                 (7, 4) --> 1, (7, 5) --> 1, (7, 6) --> 1, (7, 7) --> 1, (7, 8) --> 1, (7, 9) --> 1, (7, 10) --> 1,
                 (8, 1) --> 1, (8, 2) --> 1, (8, 3) --> 1, (8, 4) --> 1, (8, 5) --> 1, (8, 6) --> 1, (8, 7) --> 1,
                 (8, 8) --> 1, (8, 9) --> 1, (8, 10) --> 1, (9, 1) --> 1, (9, 2) --> 1, (9, 3) --> 1, (9, 4) --> 1,
                 (9, 5) --> 1, (9, 6) --> 1, (9, 7) --> 1, (9, 8) --> 1, (9, 9) --> 1, (9, 10) --> 1, (10, 1) --> 1,
                 (10, 2) --> 1, (10, 3) --> 1, (10, 4) --> 1, (10, 5) --> 1, (10, 6) --> 1, (10, 7) --> 1,
                 (10, 8) --> 1, (10, 9) --> 1, (10, 10) --> 1, (11, 1) --> 1, (11, 2) --> 1, (11, 3) --> 1,
                 (11, 4) --> 1, (11, 5) --> 1, (11, 6) --> 1, (11, 7) --> 1, (11, 8) --> 1, (11, 9) --> 1,
                 (11, 10) --> 1, (12, 1) --> 1, (12, 2) --> 1, (12, 3) --> 1, (12, 4) --> 1, (12, 5) --> 1,
                 (12, 6) --> 1, (12, 7) --> 1, (12, 8) --> 1, (12, 9) --> 1, (12, 10) --> 1, (13, 1) --> 1,
                 (13, 2) --> 1, (13, 3) --> 1, (13, 4) --> 1, (13, 5) --> 1, (13, 6) --> 1, (13, 7) --> 1,
                 (13, 8) --> 1, (13, 9) --> 1, (13, 10) --> 1, (14, 1) --> 1, (14, 2) --> 1, (14, 3) --> 1,
                 (14, 4) --> 1, (14, 5) --> 1, (14, 6) --> 1, (14, 7) --> 1, (14, 8) --> 1, (14, 9) --> 1,
                 (14, 10) --> 1, (15, 1) --> 1, (15, 2) --> 1, (15, 3) --> 1, (15, 4) --> 1, (15, 5) --> 1,
                 (15, 6) --> 1, (15, 7) --> 1, (15, 8) --> 1, (15, 9) --> 1, (15, 10) --> 1, (16, 1) --> 1,
                 (16, 2) --> 1, (16, 3) --> 1, (16, 4) --> 1, (16, 5) --> 1, (16, 6) --> 1, (16, 7) --> 1,
                 (16, 8) --> 1, (16, 9) --> 1, (16, 10) --> 1, (17, 1) --> 1, (17, 2) --> 1, (17, 3) --> 1,
                 (17, 4) --> 1, (17, 5) --> 1, (17, 6) --> 1, (17, 7) --> 1, (17, 8) --> 1, (17, 9) --> 1,
                 (17, 10) --> 1, (18, 1) --> 1, (18, 2) --> 1, (18, 3) --> 1, (18, 4) --> 1, (18, 5) --> 1,
                 (18, 6) --> 1, (18, 7) --> 1, (18, 8) --> 1, (18, 9) --> 1, (18, 10) --> 1, (19, 1) --> 1,
                 (19, 2) --> 1, (19, 3) --> 1, (19, 4) --> 1, (19, 5) --> 1, (19, 6) --> 1, (19, 7) --> 1,
                 (19, 8) --> 1, (19, 9) --> 1, (19, 10) --> 1, (20, 1) --> 1, (20, 2) --> 1, (20, 3) --> 1,
                 (20, 4) --> 1, (20, 5) --> 1, (20, 6) --> 1, (20, 7) --> 1, (20, 8) --> 1, (20, 9) --> 1,
                 (20, 10) --> 1, (21, 1) --> 1, (21, 2) --> 1, (21, 3) --> 1, (21, 4) --> 1, (21, 5) --> 1,
                 (21, 6) --> 1, (21, 7) --> 1, (21, 8) --> 1, (21, 9) --> 1, (21, 10) --> 1, (22, 1) --> 1,
                 (22, 2) --> 1, (22, 3) --> 1, (22, 4) --> 1, (22, 5) --> 1, (22, 6) --> 1, (22, 7) --> 1,
                 (22, 8) --> 1, (22, 9) --> 1, (22, 10) --> 1, (23, 1) --> 1, (23, 2) --> 1, (23, 3) --> 1,
                 (23, 4) --> 1, (23, 5) --> 1, (23, 6) --> 1, (23, 7) --> 1, (23, 8) --> 1, (23, 9) --> 1,
                 (23, 10) --> 1, (24, 1) --> 1, (24, 2) --> 1, (24, 3) --> 1, (24, 4) --> 1, (24, 5) --> 1,
                 (24, 6) --> 1, (24, 7) --> 1, (24, 8) --> 1, (24, 9) --> 1, (24, 10) --> 1, (25, 1) --> 1,
                 (25, 2) --> 1, (25, 3) --> 1, (25, 4) --> 1, (25, 5) --> 1, (25, 6) --> 1, (25, 7) --> 1,
                 (25, 8) --> 1, (25, 9) --> 1, (25, 10) --> 1, (26, 1) --> 1, (26, 2) --> 1, (26, 3) --> 1,
                 (26, 4) --> 1, (26, 5) --> 1, (26, 6) --> 1, (26, 7) --> 1, (26, 8) --> 1, (26, 9) --> 1,
                 (26, 10) --> 1, (27, 1) --> 1, (27, 2) --> 1, (27, 3) --> 1, (27, 4) --> 1, (27, 5) --> 1,
                 (27, 6) --> 1, (27, 7) --> 1, (27, 8) --> 1, (27, 9) --> 1, (27, 10) --> 1, (28, 1) --> 1,
                 (28, 2) --> 1, (28, 3) --> 1, (28, 4) --> 1, (28, 5) --> 1, (28, 6) --> 1, (28, 7) --> 1,
                 (28, 8) --> 1, (28, 9) --> 1, (28, 10) --> 1, (29, 1) --> 1, (29, 2) --> 1, (29, 3) --> 1,
                 (29, 4) --> 1, (29, 5) --> 1, (29, 6) --> 1, (29, 7) --> 1, (29, 8) --> 1, (29, 9) --> 1,
                 (29, 10) --> 1, (30, 1) --> 1, (30, 2) --> 1, (30, 3) --> 1, (30, 4) --> 1, (30, 5) --> 1,
                 (30, 6) --> 1, (30, 7) --> 1, (30, 8) --> 1, (30, 9) --> 1, (30, 10) --> 1, (31, 1) --> 1,
                 (31, 2) --> 1, (31, 3) --> 1, (31, 4) --> 1, (31, 5) --> 1, (31, 6) --> 1, (31, 7) --> 1,
                 (31, 8) --> 1, (31, 9) --> 1, (31, 10) --> 1, (32, 1) --> 1, (32, 2) --> 1, (32, 3) --> 1,
                 (32, 4) --> 1, (32, 5) --> 1, (32, 6) --> 1, (32, 7) --> 1, (32, 8) --> 1, (32, 9) --> 1,
                 (32, 10) --> 1, (33, 1) --> 1, (33, 2) --> 1, (33, 3) --> 1, (33, 4) --> 1, (33, 5) --> 1,
                 (33, 6) --> 1, (33, 7) --> 1, (33, 8) --> 1, (33, 9) --> 1, (33, 10) --> 1, (34, 1) --> 1,
                 (34, 2) --> 1, (34, 3) --> 1, (34, 4) --> 1, (34, 5) --> 1, (34, 6) --> 1, (34, 7) --> 1,
                 (34, 8) --> 1, (34, 9) --> 1, (34, 10) --> 1)
letting costWT be
        function((1, 1) --> 2, (1, 2) --> 1, (1, 3) --> 2, (1, 4) --> 2, (1, 5) --> 2, (1, 6) --> 1, (1, 7) --> 1,
                 (1, 8) --> 1, (1, 9) --> 2, (1, 10) --> 1, (1, 11) --> 2, (1, 12) --> 2, (1, 13) --> 1, (1, 14) --> 1,
                 (1, 15) --> 1, (1, 16) --> 2, (1, 17) --> 1, (1, 18) --> 2, (1, 19) --> 1, (1, 20) --> 1,
                 (1, 21) --> 2, (1, 22) --> 2, (1, 23) --> 1, (1, 24) --> 2, (1, 25) --> 2, (1, 26) --> 2,
                 (1, 27) --> 2, (1, 28) --> 2, (1, 29) --> 2, (1, 30) --> 2, (1, 31) --> 1, (1, 32) --> 2,
                 (1, 33) --> 2, (1, 34) --> 2, (2, 1) --> 1, (2, 2) --> 2, (2, 3) --> 2, (2, 4) --> 1, (2, 5) --> 2,
                 (2, 6) --> 1, (2, 7) --> 2, (2, 8) --> 2, (2, 9) --> 1, (2, 10) --> 2, (2, 11) --> 1, (2, 12) --> 2,
                 (2, 13) --> 2, (2, 14) --> 1, (2, 15) --> 2, (2, 16) --> 1, (2, 17) --> 2, (2, 18) --> 1,
                 (2, 19) --> 2, (2, 20) --> 1, (2, 21) --> 1, (2, 22) --> 1, (2, 23) --> 2, (2, 24) --> 1,
                 (2, 25) --> 2, (2, 26) --> 2, (2, 27) --> 2, (2, 28) --> 2, (2, 29) --> 1, (2, 30) --> 2,
                 (2, 31) --> 1, (2, 32) --> 2, (2, 33) --> 1, (2, 34) --> 1, (3, 1) --> 1, (3, 2) --> 1, (3, 3) --> 2,
                 (3, 4) --> 2, (3, 5) --> 1, (3, 6) --> 1, (3, 7) --> 1, (3, 8) --> 2, (3, 9) --> 1, (3, 10) --> 1,
                 (3, 11) --> 1, (3, 12) --> 1, (3, 13) --> 2, (3, 14) --> 2, (3, 15) --> 1, (3, 16) --> 1,
                 (3, 17) --> 1, (3, 18) --> 1, (3, 19) --> 1, (3, 20) --> 1, (3, 21) --> 2, (3, 22) --> 1,
                 (3, 23) --> 1, (3, 24) --> 1, (3, 25) --> 1, (3, 26) --> 2, (3, 27) --> 1, (3, 28) --> 2,
                 (3, 29) --> 1, (3, 30) --> 2, (3, 31) --> 2, (3, 32) --> 2, (3, 33) --> 2, (3, 34) --> 1, (4, 1) --> 1,
                 (4, 2) --> 2, (4, 3) --> 1, (4, 4) --> 2, (4, 5) --> 2, (4, 6) --> 2, (4, 7) --> 2, (4, 8) --> 1,
                 (4, 9) --> 1, (4, 10) --> 2, (4, 11) --> 1, (4, 12) --> 1, (4, 13) --> 2, (4, 14) --> 1, (4, 15) --> 1,
                 (4, 16) --> 2, (4, 17) --> 2, (4, 18) --> 2, (4, 19) --> 2, (4, 20) --> 1, (4, 21) --> 2,
                 (4, 22) --> 1, (4, 23) --> 1, (4, 24) --> 2, (4, 25) --> 1, (4, 26) --> 1, (4, 27) --> 2,
                 (4, 28) --> 2, (4, 29) --> 1, (4, 30) --> 1, (4, 31) --> 2, (4, 32) --> 1, (4, 33) --> 1,
                 (4, 34) --> 2, (5, 1) --> 2, (5, 2) --> 2, (5, 3) --> 1, (5, 4) --> 2, (5, 5) --> 1, (5, 6) --> 1,
                 (5, 7) --> 1, (5, 8) --> 2, (5, 9) --> 2, (5, 10) --> 1, (5, 11) --> 1, (5, 12) --> 2, (5, 13) --> 2,
                 (5, 14) --> 1, (5, 15) --> 1, (5, 16) --> 2, (5, 17) --> 2, (5, 18) --> 2, (5, 19) --> 2,
                 (5, 20) --> 1, (5, 21) --> 1, (5, 22) --> 2, (5, 23) --> 2, (5, 24) --> 2, (5, 25) --> 1,
                 (5, 26) --> 2, (5, 27) --> 2, (5, 28) --> 1, (5, 29) --> 1, (5, 30) --> 2, (5, 31) --> 1,
                 (5, 32) --> 2, (5, 33) --> 2, (5, 34) --> 1, (6, 1) --> 2, (6, 2) --> 2, (6, 3) --> 1, (6, 4) --> 2,
                 (6, 5) --> 1, (6, 6) --> 1, (6, 7) --> 2, (6, 8) --> 2, (6, 9) --> 1, (6, 10) --> 1, (6, 11) --> 2,
                 (6, 12) --> 2, (6, 13) --> 1, (6, 14) --> 1, (6, 15) --> 1, (6, 16) --> 2, (6, 17) --> 2,
                 (6, 18) --> 2, (6, 19) --> 2, (6, 20) --> 1, (6, 21) --> 2, (6, 22) --> 2, (6, 23) --> 1,
                 (6, 24) --> 2, (6, 25) --> 1, (6, 26) --> 2, (6, 27) --> 2, (6, 28) --> 1, (6, 29) --> 1,
                 (6, 30) --> 1, (6, 31) --> 2, (6, 32) --> 1, (6, 33) --> 1, (6, 34) --> 1, (7, 1) --> 2, (7, 2) --> 2,
                 (7, 3) --> 1, (7, 4) --> 2, (7, 5) --> 2, (7, 6) --> 2, (7, 7) --> 2, (7, 8) --> 1, (7, 9) --> 1,
                 (7, 10) --> 1, (7, 11) --> 1, (7, 12) --> 2, (7, 13) --> 2, (7, 14) --> 2, (7, 15) --> 1,
                 (7, 16) --> 1, (7, 17) --> 2, (7, 18) --> 2, (7, 19) --> 2, (7, 20) --> 1, (7, 21) --> 1,
                 (7, 22) --> 1, (7, 23) --> 1, (7, 24) --> 1, (7, 25) --> 1, (7, 26) --> 2, (7, 27) --> 1,
                 (7, 28) --> 1, (7, 29) --> 2, (7, 30) --> 1, (7, 31) --> 1, (7, 32) --> 2, (7, 33) --> 2,
                 (7, 34) --> 2, (8, 1) --> 1, (8, 2) --> 1, (8, 3) --> 2, (8, 4) --> 2, (8, 5) --> 2, (8, 6) --> 1,
                 (8, 7) --> 2, (8, 8) --> 2, (8, 9) --> 2, (8, 10) --> 1, (8, 11) --> 2, (8, 12) --> 1, (8, 13) --> 2,
                 (8, 14) --> 2, (8, 15) --> 1, (8, 16) --> 2, (8, 17) --> 2, (8, 18) --> 2, (8, 19) --> 1,
                 (8, 20) --> 2, (8, 21) --> 1, (8, 22) --> 2, (8, 23) --> 1, (8, 24) --> 1, (8, 25) --> 1,
                 (8, 26) --> 2, (8, 27) --> 1, (8, 28) --> 1, (8, 29) --> 1, (8, 30) --> 1, (8, 31) --> 1,
                 (8, 32) --> 2, (8, 33) --> 2, (8, 34) --> 1, (9, 1) --> 2, (9, 2) --> 1, (9, 3) --> 2, (9, 4) --> 2,
                 (9, 5) --> 2, (9, 6) --> 2, (9, 7) --> 1, (9, 8) --> 1, (9, 9) --> 2, (9, 10) --> 2, (9, 11) --> 1,
                 (9, 12) --> 2, (9, 13) --> 2, (9, 14) --> 1, (9, 15) --> 1, (9, 16) --> 2, (9, 17) --> 1,
                 (9, 18) --> 2, (9, 19) --> 1, (9, 20) --> 2, (9, 21) --> 1, (9, 22) --> 1, (9, 23) --> 2,
                 (9, 24) --> 2, (9, 25) --> 1, (9, 26) --> 1, (9, 27) --> 2, (9, 28) --> 1, (9, 29) --> 1,
                 (9, 30) --> 1, (9, 31) --> 2, (9, 32) --> 1, (9, 33) --> 1, (9, 34) --> 2, (10, 1) --> 1,
                 (10, 2) --> 2, (10, 3) --> 1, (10, 4) --> 1, (10, 5) --> 1, (10, 6) --> 1, (10, 7) --> 1,
                 (10, 8) --> 2, (10, 9) --> 2, (10, 10) --> 1, (10, 11) --> 1, (10, 12) --> 1, (10, 13) --> 1,
                 (10, 14) --> 2, (10, 15) --> 1, (10, 16) --> 1, (10, 17) --> 2, (10, 18) --> 1, (10, 19) --> 1,
                 (10, 20) --> 2, (10, 21) --> 1, (10, 22) --> 1, (10, 23) --> 1, (10, 24) --> 2, (10, 25) --> 2,
                 (10, 26) --> 1, (10, 27) --> 1, (10, 28) --> 2, (10, 29) --> 2, (10, 30) --> 1, (10, 31) --> 2,
                 (10, 32) --> 1, (10, 33) --> 1, (10, 34) --> 1, (11, 1) --> 2, (11, 2) --> 1, (11, 3) --> 1,
                 (11, 4) --> 2, (11, 5) --> 2, (11, 6) --> 1, (11, 7) --> 2, (11, 8) --> 1, (11, 9) --> 1,
                 (11, 10) --> 1, (11, 11) --> 1, (11, 12) --> 2, (11, 13) --> 1, (11, 14) --> 1, (11, 15) --> 2,
                 (11, 16) --> 1, (11, 17) --> 2, (11, 18) --> 1, (11, 19) --> 1, (11, 20) --> 2, (11, 21) --> 1,
                 (11, 22) --> 1, (11, 23) --> 2, (11, 24) --> 1, (11, 25) --> 1, (11, 26) --> 2, (11, 27) --> 2,
                 (11, 28) --> 2, (11, 29) --> 2, (11, 30) --> 1, (11, 31) --> 2, (11, 32) --> 1, (11, 33) --> 1,
                 (11, 34) --> 1, (12, 1) --> 1, (12, 2) --> 2, (12, 3) --> 2, (12, 4) --> 2, (12, 5) --> 1,
                 (12, 6) --> 2, (12, 7) --> 1, (12, 8) --> 1, (12, 9) --> 2, (12, 10) --> 2, (12, 11) --> 2,
                 (12, 12) --> 1, (12, 13) --> 1, (12, 14) --> 2, (12, 15) --> 2, (12, 16) --> 1, (12, 17) --> 1,
                 (12, 18) --> 1, (12, 19) --> 1, (12, 20) --> 2, (12, 21) --> 2, (12, 22) --> 1, (12, 23) --> 1,
                 (12, 24) --> 2, (12, 25) --> 1, (12, 26) --> 2, (12, 27) --> 1, (12, 28) --> 2, (12, 29) --> 2,
                 (12, 30) --> 1, (12, 31) --> 1, (12, 32) --> 1, (12, 33) --> 1, (12, 34) --> 2, (13, 1) --> 1,
                 (13, 2) --> 1, (13, 3) --> 1, (13, 4) --> 1, (13, 5) --> 2, (13, 6) --> 1, (13, 7) --> 2,
                 (13, 8) --> 2, (13, 9) --> 2, (13, 10) --> 2, (13, 11) --> 2, (13, 12) --> 2, (13, 13) --> 1,
                 (13, 14) --> 1, (13, 15) --> 1, (13, 16) --> 2, (13, 17) --> 2, (13, 18) --> 2, (13, 19) --> 1,
                 (13, 20) --> 2, (13, 21) --> 2, (13, 22) --> 2, (13, 23) --> 1, (13, 24) --> 1, (13, 25) --> 2,
                 (13, 26) --> 2, (13, 27) --> 1, (13, 28) --> 1, (13, 29) --> 1, (13, 30) --> 2, (13, 31) --> 1,
                 (13, 32) --> 1, (13, 33) --> 1, (13, 34) --> 2, (14, 1) --> 2, (14, 2) --> 2, (14, 3) --> 1,
                 (14, 4) --> 1, (14, 5) --> 1, (14, 6) --> 1, (14, 7) --> 2, (14, 8) --> 1, (14, 9) --> 1,
                 (14, 10) --> 2, (14, 11) --> 1, (14, 12) --> 1, (14, 13) --> 2, (14, 14) --> 2, (14, 15) --> 1,
                 (14, 16) --> 2, (14, 17) --> 1, (14, 18) --> 2, (14, 19) --> 1, (14, 20) --> 2, (14, 21) --> 1,
                 (14, 22) --> 2, (14, 23) --> 2, (14, 24) --> 1, (14, 25) --> 1, (14, 26) --> 2, (14, 27) --> 2,
                 (14, 28) --> 1, (14, 29) --> 1, (14, 30) --> 2, (14, 31) --> 1, (14, 32) --> 2, (14, 33) --> 1,
                 (14, 34) --> 1, (15, 1) --> 1, (15, 2) --> 2, (15, 3) --> 1, (15, 4) --> 2, (15, 5) --> 2,
                 (15, 6) --> 1, (15, 7) --> 1, (15, 8) --> 2, (15, 9) --> 2, (15, 10) --> 2, (15, 11) --> 1,
                 (15, 12) --> 1, (15, 13) --> 1, (15, 14) --> 1, (15, 15) --> 1, (15, 16) --> 2, (15, 17) --> 1,
                 (15, 18) --> 1, (15, 19) --> 2, (15, 20) --> 2, (15, 21) --> 2, (15, 22) --> 2, (15, 23) --> 2,
                 (15, 24) --> 1, (15, 25) --> 2, (15, 26) --> 2, (15, 27) --> 1, (15, 28) --> 1, (15, 29) --> 2,
                 (15, 30) --> 1, (15, 31) --> 2, (15, 32) --> 1, (15, 33) --> 2, (15, 34) --> 1, (16, 1) --> 2,
                 (16, 2) --> 1, (16, 3) --> 2, (16, 4) --> 2, (16, 5) --> 2, (16, 6) --> 1, (16, 7) --> 2,
                 (16, 8) --> 2, (16, 9) --> 2, (16, 10) --> 1, (16, 11) --> 2, (16, 12) --> 1, (16, 13) --> 1,
                 (16, 14) --> 1, (16, 15) --> 2, (16, 16) --> 1, (16, 17) --> 2, (16, 18) --> 1, (16, 19) --> 1,
                 (16, 20) --> 2, (16, 21) --> 1, (16, 22) --> 2, (16, 23) --> 2, (16, 24) --> 2, (16, 25) --> 1,
                 (16, 26) --> 2, (16, 27) --> 2, (16, 28) --> 1, (16, 29) --> 2, (16, 30) --> 1, (16, 31) --> 1,
                 (16, 32) --> 2, (16, 33) --> 2, (16, 34) --> 2, (17, 1) --> 2, (17, 2) --> 1, (17, 3) --> 1,
                 (17, 4) --> 1, (17, 5) --> 1, (17, 6) --> 1, (17, 7) --> 1, (17, 8) --> 1, (17, 9) --> 2,
                 (17, 10) --> 1, (17, 11) --> 2, (17, 12) --> 1, (17, 13) --> 1, (17, 14) --> 1, (17, 15) --> 2,
                 (17, 16) --> 1, (17, 17) --> 1, (17, 18) --> 2, (17, 19) --> 1, (17, 20) --> 1, (17, 21) --> 2,
                 (17, 22) --> 2, (17, 23) --> 1, (17, 24) --> 1, (17, 25) --> 1, (17, 26) --> 2, (17, 27) --> 1,
                 (17, 28) --> 1, (17, 29) --> 2, (17, 30) --> 1, (17, 31) --> 2, (17, 32) --> 2, (17, 33) --> 1,
                 (17, 34) --> 1, (18, 1) --> 1, (18, 2) --> 2, (18, 3) --> 2, (18, 4) --> 2, (18, 5) --> 1,
                 (18, 6) --> 2, (18, 7) --> 1, (18, 8) --> 1, (18, 9) --> 1, (18, 10) --> 2, (18, 11) --> 1,
                 (18, 12) --> 2, (18, 13) --> 1, (18, 14) --> 2, (18, 15) --> 2, (18, 16) --> 2, (18, 17) --> 1,
                 (18, 18) --> 1, (18, 19) --> 1, (18, 20) --> 2, (18, 21) --> 2, (18, 22) --> 2, (18, 23) --> 1,
                 (18, 24) --> 2, (18, 25) --> 2, (18, 26) --> 2, (18, 27) --> 2, (18, 28) --> 2, (18, 29) --> 2,
                 (18, 30) --> 2, (18, 31) --> 1, (18, 32) --> 2, (18, 33) --> 2, (18, 34) --> 2, (19, 1) --> 2,
                 (19, 2) --> 2, (19, 3) --> 2, (19, 4) --> 2, (19, 5) --> 1, (19, 6) --> 2, (19, 7) --> 2,
                 (19, 8) --> 2, (19, 9) --> 2, (19, 10) --> 1, (19, 11) --> 2, (19, 12) --> 2, (19, 13) --> 1,
                 (19, 14) --> 2, (19, 15) --> 2, (19, 16) --> 2, (19, 17) --> 2, (19, 18) --> 1, (19, 19) --> 2,
                 (19, 20) --> 1, (19, 21) --> 1, (19, 22) --> 2, (19, 23) --> 2, (19, 24) --> 1, (19, 25) --> 2,
                 (19, 26) --> 2, (19, 27) --> 1, (19, 28) --> 2, (19, 29) --> 1, (19, 30) --> 1, (19, 31) --> 1,
                 (19, 32) --> 2, (19, 33) --> 2, (19, 34) --> 1, (20, 1) --> 1, (20, 2) --> 1, (20, 3) --> 2,
                 (20, 4) --> 2, (20, 5) --> 1, (20, 6) --> 2, (20, 7) --> 2, (20, 8) --> 1, (20, 9) --> 1,
                 (20, 10) --> 1, (20, 11) --> 1, (20, 12) --> 2, (20, 13) --> 2, (20, 14) --> 2, (20, 15) --> 2,
                 (20, 16) --> 1, (20, 17) --> 2, (20, 18) --> 1, (20, 19) --> 1, (20, 20) --> 1, (20, 21) --> 2,
                 (20, 22) --> 2, (20, 23) --> 1, (20, 24) --> 2, (20, 25) --> 2, (20, 26) --> 2, (20, 27) --> 1,
                 (20, 28) --> 1, (20, 29) --> 1, (20, 30) --> 1, (20, 31) --> 2, (20, 32) --> 1, (20, 33) --> 2,
                 (20, 34) --> 1, (21, 1) --> 2, (21, 2) --> 1, (21, 3) --> 2, (21, 4) --> 1, (21, 5) --> 1,
                 (21, 6) --> 2, (21, 7) --> 1, (21, 8) --> 1, (21, 9) --> 2, (21, 10) --> 1, (21, 11) --> 2,
                 (21, 12) --> 1, (21, 13) --> 1, (21, 14) --> 1, (21, 15) --> 1, (21, 16) --> 1, (21, 17) --> 2,
                 (21, 18) --> 2, (21, 19) --> 1, (21, 20) --> 2, (21, 21) --> 2, (21, 22) --> 2, (21, 23) --> 1,
                 (21, 24) --> 1, (21, 25) --> 1, (21, 26) --> 1, (21, 27) --> 2, (21, 28) --> 2, (21, 29) --> 1,
                 (21, 30) --> 2, (21, 31) --> 2, (21, 32) --> 2, (21, 33) --> 2, (21, 34) --> 2, (22, 1) --> 1,
                 (22, 2) --> 1, (22, 3) --> 2, (22, 4) --> 2, (22, 5) --> 1, (22, 6) --> 2, (22, 7) --> 1,
                 (22, 8) --> 2, (22, 9) --> 2, (22, 10) --> 1, (22, 11) --> 2, (22, 12) --> 1, (22, 13) --> 1,
                 (22, 14) --> 1, (22, 15) --> 2, (22, 16) --> 1, (22, 17) --> 2, (22, 18) --> 2, (22, 19) --> 1,
                 (22, 20) --> 2, (22, 21) --> 2, (22, 22) --> 2, (22, 23) --> 2, (22, 24) --> 2, (22, 25) --> 1,
                 (22, 26) --> 2, (22, 27) --> 1, (22, 28) --> 2, (22, 29) --> 1, (22, 30) --> 2, (22, 31) --> 1,
                 (22, 32) --> 1, (22, 33) --> 1, (22, 34) --> 2, (23, 1) --> 1, (23, 2) --> 2, (23, 3) --> 1,
                 (23, 4) --> 2, (23, 5) --> 2, (23, 6) --> 1, (23, 7) --> 1, (23, 8) --> 2, (23, 9) --> 2,
                 (23, 10) --> 1, (23, 11) --> 1, (23, 12) --> 2, (23, 13) --> 1, (23, 14) --> 1, (23, 15) --> 2,
                 (23, 16) --> 1, (23, 17) --> 1, (23, 18) --> 2, (23, 19) --> 2, (23, 20) --> 1, (23, 21) --> 2,
                 (23, 22) --> 2, (23, 23) --> 1, (23, 24) --> 1, (23, 25) --> 1, (23, 26) --> 1, (23, 27) --> 2,
                 (23, 28) --> 2, (23, 29) --> 1, (23, 30) --> 1, (23, 31) --> 2, (23, 32) --> 1, (23, 33) --> 1,
                 (23, 34) --> 2, (24, 1) --> 1, (24, 2) --> 2, (24, 3) --> 2, (24, 4) --> 1, (24, 5) --> 1,
                 (24, 6) --> 1, (24, 7) --> 1, (24, 8) --> 1, (24, 9) --> 1, (24, 10) --> 1, (24, 11) --> 2,
                 (24, 12) --> 1, (24, 13) --> 1, (24, 14) --> 2, (24, 15) --> 1, (24, 16) --> 1, (24, 17) --> 1,
                 (24, 18) --> 2, (24, 19) --> 1, (24, 20) --> 2, (24, 21) --> 1, (24, 22) --> 2, (24, 23) --> 1,
                 (24, 24) --> 1, (24, 25) --> 2, (24, 26) --> 1, (24, 27) --> 1, (24, 28) --> 1, (24, 29) --> 1,
                 (24, 30) --> 2, (24, 31) --> 2, (24, 32) --> 1, (24, 33) --> 2, (24, 34) --> 1, (25, 1) --> 1,
                 (25, 2) --> 1, (25, 3) --> 1, (25, 4) --> 2, (25, 5) --> 1, (25, 6) --> 1, (25, 7) --> 2,
                 (25, 8) --> 1, (25, 9) --> 2, (25, 10) --> 1, (25, 11) --> 2, (25, 12) --> 2, (25, 13) --> 2,
                 (25, 14) --> 1, (25, 15) --> 1, (25, 16) --> 1, (25, 17) --> 1, (25, 18) --> 2, (25, 19) --> 2,
                 (25, 20) --> 2, (25, 21) --> 2, (25, 22) --> 2, (25, 23) --> 2, (25, 24) --> 1, (25, 25) --> 1,
                 (25, 26) --> 1, (25, 27) --> 2, (25, 28) --> 1, (25, 29) --> 1, (25, 30) --> 1, (25, 31) --> 2,
                 (25, 32) --> 1, (25, 33) --> 2, (25, 34) --> 2, (26, 1) --> 2, (26, 2) --> 1, (26, 3) --> 2,
                 (26, 4) --> 1, (26, 5) --> 2, (26, 6) --> 1, (26, 7) --> 1, (26, 8) --> 2, (26, 9) --> 2,
                 (26, 10) --> 2, (26, 11) --> 2, (26, 12) --> 2, (26, 13) --> 1, (26, 14) --> 1, (26, 15) --> 1,
                 (26, 16) --> 2, (26, 17) --> 2, (26, 18) --> 2, (26, 19) --> 2, (26, 20) --> 2, (26, 21) --> 2,
                 (26, 22) --> 1, (26, 23) --> 2, (26, 24) --> 1, (26, 25) --> 1, (26, 26) --> 2, (26, 27) --> 1,
                 (26, 28) --> 1, (26, 29) --> 1, (26, 30) --> 2, (26, 31) --> 1, (26, 32) --> 1, (26, 33) --> 2,
                 (26, 34) --> 2, (27, 1) --> 1, (27, 2) --> 2, (27, 3) --> 1, (27, 4) --> 2, (27, 5) --> 1,
                 (27, 6) --> 2, (27, 7) --> 1, (27, 8) --> 2, (27, 9) --> 1, (27, 10) --> 2, (27, 11) --> 1,
                 (27, 12) --> 2, (27, 13) --> 2, (27, 14) --> 1, (27, 15) --> 1, (27, 16) --> 1, (27, 17) --> 1,
                 (27, 18) --> 1, (27, 19) --> 1, (27, 20) --> 1, (27, 21) --> 1, (27, 22) --> 2, (27, 23) --> 2,
                 (27, 24) --> 1, (27, 25) --> 1, (27, 26) --> 2, (27, 27) --> 2, (27, 28) --> 1, (27, 29) --> 1,
                 (27, 30) --> 2, (27, 31) --> 1, (27, 32) --> 1, (27, 33) --> 2, (27, 34) --> 1, (28, 1) --> 2,
                 (28, 2) --> 2, (28, 3) --> 2, (28, 4) --> 2, (28, 5) --> 1, (28, 6) --> 2, (28, 7) --> 2,
                 (28, 8) --> 2, (28, 9) --> 2, (28, 10) --> 1, (28, 11) --> 1, (28, 12) --> 1, (28, 13) --> 1,
                 (28, 14) --> 1, (28, 15) --> 1, (28, 16) --> 2, (28, 17) --> 2, (28, 18) --> 2, (28, 19) --> 2,
                 (28, 20) --> 2, (28, 21) --> 1, (28, 22) --> 2, (28, 23) --> 1, (28, 24) --> 2, (28, 25) --> 2,
                 (28, 26) --> 1, (28, 27) --> 2, (28, 28) --> 1, (28, 29) --> 2, (28, 30) --> 2, (28, 31) --> 1,
                 (28, 32) --> 2, (28, 33) --> 1, (28, 34) --> 2, (29, 1) --> 2, (29, 2) --> 2, (29, 3) --> 1,
                 (29, 4) --> 2, (29, 5) --> 1, (29, 6) --> 2, (29, 7) --> 2, (29, 8) --> 2, (29, 9) --> 2,
                 (29, 10) --> 2, (29, 11) --> 2, (29, 12) --> 2, (29, 13) --> 1, (29, 14) --> 1, (29, 15) --> 2,
                 (29, 16) --> 1, (29, 17) --> 2, (29, 18) --> 1, (29, 19) --> 2, (29, 20) --> 1, (29, 21) --> 1,
                 (29, 22) --> 1, (29, 23) --> 1, (29, 24) --> 2, (29, 25) --> 1, (29, 26) --> 1, (29, 27) --> 2,
                 (29, 28) --> 1, (29, 29) --> 2, (29, 30) --> 1, (29, 31) --> 1, (29, 32) --> 1, (29, 33) --> 1,
                 (29, 34) --> 2, (30, 1) --> 2, (30, 2) --> 1, (30, 3) --> 2, (30, 4) --> 1, (30, 5) --> 1,
                 (30, 6) --> 2, (30, 7) --> 1, (30, 8) --> 2, (30, 9) --> 1, (30, 10) --> 2, (30, 11) --> 2,
                 (30, 12) --> 2, (30, 13) --> 1, (30, 14) --> 1, (30, 15) --> 2, (30, 16) --> 1, (30, 17) --> 2,
                 (30, 18) --> 2, (30, 19) --> 2, (30, 20) --> 2, (30, 21) --> 2, (30, 22) --> 1, (30, 23) --> 2,
                 (30, 24) --> 2, (30, 25) --> 2, (30, 26) --> 2, (30, 27) --> 1, (30, 28) --> 1, (30, 29) --> 1,
                 (30, 30) --> 1, (30, 31) --> 2, (30, 32) --> 2, (30, 33) --> 2, (30, 34) --> 2, (31, 1) --> 1,
                 (31, 2) --> 1, (31, 3) --> 1, (31, 4) --> 1, (31, 5) --> 1, (31, 6) --> 1, (31, 7) --> 2,
                 (31, 8) --> 2, (31, 9) --> 1, (31, 10) --> 1, (31, 11) --> 1, (31, 12) --> 2, (31, 13) --> 2,
                 (31, 14) --> 2, (31, 15) --> 1, (31, 16) --> 2, (31, 17) --> 2, (31, 18) --> 1, (31, 19) --> 1,
                 (31, 20) --> 2, (31, 21) --> 2, (31, 22) --> 2, (31, 23) --> 1, (31, 24) --> 1, (31, 25) --> 2,
                 (31, 26) --> 1, (31, 27) --> 1, (31, 28) --> 2, (31, 29) --> 1, (31, 30) --> 2, (31, 31) --> 1,
                 (31, 32) --> 2, (31, 33) --> 2, (31, 34) --> 2, (32, 1) --> 1, (32, 2) --> 1, (32, 3) --> 2,
                 (32, 4) --> 2, (32, 5) --> 2, (32, 6) --> 2, (32, 7) --> 1, (32, 8) --> 2, (32, 9) --> 2,
                 (32, 10) --> 1, (32, 11) --> 1, (32, 12) --> 1, (32, 13) --> 2, (32, 14) --> 1, (32, 15) --> 1,
                 (32, 16) --> 1, (32, 17) --> 2, (32, 18) --> 1, (32, 19) --> 1, (32, 20) --> 2, (32, 21) --> 2,
                 (32, 22) --> 2, (32, 23) --> 1, (32, 24) --> 1, (32, 25) --> 2, (32, 26) --> 2, (32, 27) --> 1,
                 (32, 28) --> 1, (32, 29) --> 2, (32, 30) --> 2, (32, 31) --> 1, (32, 32) --> 1, (32, 33) --> 1,
                 (32, 34) --> 1, (33, 1) --> 2, (33, 2) --> 2, (33, 3) --> 1, (33, 4) --> 2, (33, 5) --> 2,
                 (33, 6) --> 1, (33, 7) --> 1, (33, 8) --> 1, (33, 9) --> 2, (33, 10) --> 2, (33, 11) --> 1,
                 (33, 12) --> 2, (33, 13) --> 2, (33, 14) --> 1, (33, 15) --> 1, (33, 16) --> 2, (33, 17) --> 2,
                 (33, 18) --> 2, (33, 19) --> 1, (33, 20) --> 2, (33, 21) --> 1, (33, 22) --> 1, (33, 23) --> 2,
                 (33, 24) --> 2, (33, 25) --> 2, (33, 26) --> 2, (33, 27) --> 2, (33, 28) --> 1, (33, 29) --> 1,
                 (33, 30) --> 1, (33, 31) --> 1, (33, 32) --> 2, (33, 33) --> 2, (33, 34) --> 2)
letting demand be
        function(1 --> 10, 2 --> 10, 3 --> 10, 4 --> 10, 5 --> 10, 6 --> 10, 7 --> 10, 8 --> 10, 9 --> 10, 10 --> 10)
letting maxCost be 44
letting n_customer be 10
letting n_transshipment be 34
letting n_warehouses be 33
letting stock be
        function(1 --> 31, 2 --> 26, 3 --> 32, 4 --> 26, 5 --> 28, 6 --> 27, 7 --> 32, 8 --> 32, 9 --> 28, 10 --> 32,
                 11 --> 32, 12 --> 30, 13 --> 28, 14 --> 31, 15 --> 26, 16 --> 29, 17 --> 27, 18 --> 26, 19 --> 28,
                 20 --> 26, 21 --> 32, 22 --> 27, 23 --> 29, 24 --> 26, 25 --> 28, 26 --> 27, 27 --> 27, 28 --> 29,
                 29 --> 26, 30 --> 29, 31 --> 27, 32 --> 29, 33 --> 29)
